# Solution for model transpiration_srl_ilp
# Objective value = 1.9254250284518013e+00
Z_537_2_0 0
Z_537_2_1 0
Z_537_2_2 1
Z_537_2_3 0
Z_537_2_4 0
Z_83_1_0 0
Z_83_1_1 0
Z_83_1_2 1
Z_83_1_3 0
Z_83_1_4 0
